c clasp version 3.3.6
c Reading from penalty_logic_input2.txt
c Solving...
c Answer: 1
v -1 2 -3 4 0
c Answer: 2
v 1 -2 3 -4 0
c Answer: 3
v 1 2 -3 4 0
c Answer: 4
v 1 -2 -3 4 0
s SATISFIABLE
c 
c Models         : 4
c Calls          : 1
c Time           : 0.001s (Solving: 0.00s 1st Model: 0.00s Unsat: 0.00s)
c CPU Time       : 0.000s
